19 38
5 8 11 15
2 9 13
1
6 9 11 18
5 7 10 12 16
0 4 12 18
3 11 14 17
4 8 13
0 7 18
1 3
4 11 15
0 3 6 10 12 13 14
4 5 11 14 17
1 7 11 14
6 11 12 13 15 16 18
0 10 14 17 18
4 14 17
6 12 15 16
3 5 8 14 15
